analyze/results_flowersnark/final_miplib_symretope_if_extended_generating_set_cpx_v802__settings_final_nosym_norestarts__2__neos-777800.mps.gz.sol
solution status: optimal solution found
objective value:                                  -80
x#80#20                                             1 	(obj:-1)
x#79#6                                              1 	(obj:-1)
x#78#36                                             1 	(obj:-1)
x#77#59                                             1 	(obj:-1)
x#76#68                                             1 	(obj:-1)
x#75#72                                             1 	(obj:-1)
x#74#76                                             1 	(obj:-1)
x#73#56                                             1 	(obj:-1)
x#72#66                                             1 	(obj:-1)
x#71#61                                             1 	(obj:-1)
x#70#71                             0.999999999999999 	(obj:-1)
x#69#14                                             1 	(obj:-1)
x#68#75                                             1 	(obj:-1)
x#67#78                                             1 	(obj:-1)
x#66#69                                             1 	(obj:-1)
x#65#38                                             1 	(obj:-1)
x#64#23                                             1 	(obj:-1)
x#63#25                                             1 	(obj:-1)
x#62#48                                             1 	(obj:-1)
x#61#40                                             1 	(obj:-1)
x#60#37                                             1 	(obj:-1)
x#59#30                                             1 	(obj:-1)
x#58#26                             0.999999999999999 	(obj:-1)
x#57#13                                             1 	(obj:-1)
x#56#34                                             1 	(obj:-1)
x#55#18                                             1 	(obj:-1)
x#54#67                             0.999999999999999 	(obj:-1)
x#53#42                                             1 	(obj:-1)
x#52#12                                             1 	(obj:-1)
x#51#60                                             1 	(obj:-1)
x#50#55                                             1 	(obj:-1)
x#49#49                                             1 	(obj:-1)
x#48#2                                              1 	(obj:-1)
x#47#73                                             1 	(obj:-1)
x#46#50                                             1 	(obj:-1)
x#45#10                                             1 	(obj:-1)
x#44#19                                             1 	(obj:-1)
x#43#15                                             1 	(obj:-1)
x#42#9                                              1 	(obj:-1)
x#41#21                                             1 	(obj:-1)
x#40#52                                             1 	(obj:-1)
x#39#35                                             1 	(obj:-1)
x#38#4                                              1 	(obj:-1)
x#37#32                                             1 	(obj:-1)
x#36#29                                             1 	(obj:-1)
x#35#41                                             1 	(obj:-1)
x#34#22                                             1 	(obj:-1)
x#33#3                                              1 	(obj:-1)
x#32#8                                              1 	(obj:-1)
x#31#63                                             1 	(obj:-1)
x#30#11                                             1 	(obj:-1)
x#29#62                                             1 	(obj:-1)
x#28#47                                             1 	(obj:-1)
x#27#54                                             1 	(obj:-1)
x#26#17                                             1 	(obj:-1)
x#25#77                                             1 	(obj:-1)
x#24#80                                             1 	(obj:-1)
x#23#7                                              1 	(obj:-1)
x#22#44                                             1 	(obj:-1)
x#21#58                                             1 	(obj:-1)
x#20#5                                              1 	(obj:-1)
x#19#74                                             1 	(obj:-1)
x#18#16                                             1 	(obj:-1)
x#17#65                                             1 	(obj:-1)
x#16#70                                             1 	(obj:-1)
x#15#57                                             1 	(obj:-1)
x#14#53                                             1 	(obj:-1)
x#13#64                                             1 	(obj:-1)
x#12#27                                             1 	(obj:-1)
x#11#46                                             1 	(obj:-1)
x#10#51                                             1 	(obj:-1)
x#9#45                                              1 	(obj:-1)
x#8#39                                              1 	(obj:-1)
x#7#28                                              1 	(obj:-1)
x#6#31                                              1 	(obj:-1)
x#5#33                                              1 	(obj:-1)
x#4#24                                              1 	(obj:-1)
x#3#43                                              1 	(obj:-1)
x#2#1                                               1 	(obj:-1)
x#1#79                                              1 	(obj:-1)
